1633341600
1633365000
1633428000
1633451400
1633514400
1633537800
1633600800
1633624200
1633687200
1633710600
1633082400
1633105800
1633946400
1633969800
1634025600
1634056200
1634119200
1634142600
1634205600
1634229000
1634292000
1634315400
1634551200
1634574600
1634637600
1634661000
1634724000
1634747400
1634810400
1634833800
1634896800
1634920200
1635242400
1635265800
1635352200
1635415200
1635438600
1635487200
1635501600
1635328800
